52 97 45 38 72 96 4 25 19 76 12 57 83 66 39 16 17 74 50 14 80 58 81 78 61 9 63 0 67 95 65 1 93 13 28 99 79 3 5 37 92 40 53 62 2 98 15 60 70 8 68 49 48 90 20 35 54 88 22 41 30 46 18 43 7 32 21 51 47 55 85 10 89 73 75 31 69 91 64 84 94 29 24 27 34 56 26 42 82 33 23 44 87 11 86 77 71 6 59 36